cases/matpower/case5_gap.m
ipopt
DCP
[info | PowerModels]: removing 1 cost terms from generator 4: [-4000.0, 0.0]
[info | PowerModels]: removing 1 cost terms from generator 1: [-1400.0, 0.0]
[info | PowerModels]: removing 1 cost terms from generator 5: [-1000.0, 0.0]
[info | PowerModels]: removing 1 cost terms from generator 2: [-1500.0, 0.0]
[info | PowerModels]: removing 1 cost terms from generator 3: [-3000.0, 0.0]

******************************************************************************
This program contains Ipopt, a library for large-scale nonlinear optimization.
 Ipopt is released as open source code under the Eclipse Public License (EPL).
         For more information visit http://projects.coin-or.org/Ipopt
******************************************************************************

This is Ipopt version 3.13.2, running with linear solver mumps.
NOTE: Other linear solvers might be more efficient (see Ipopt documentation).

Number of nonzeros in equality constraint Jacobian...:       36
Number of nonzeros in inequality constraint Jacobian.:       24
Number of nonzeros in Lagrangian Hessian.............:        0

Total number of variables............................:       16
                     variables with only lower bounds:        0
                variables with lower and upper bounds:       11
                     variables with only upper bounds:        0
Total number of equality constraints.................:       12
Total number of inequality constraints...............:       12
        inequality constraints with only lower bounds:        6
   inequality constraints with lower and upper bounds:        0
        inequality constraints with only upper bounds:        6

iter    objective    inf_pr   inf_du lg(mu)  ||d||  lg(rg) alpha_du alpha_pr  ls
   0 -1.0059989e+02 3.99e+00 3.51e+01  -1.0 0.00e+00    -  0.00e+00 0.00e+00   0
   1 -1.1091095e+04 2.18e+00 1.36e+02  -1.0 2.68e+00    -  3.83e-03 4.54e-01f  1
   2 -1.4284126e+04 2.13e+00 1.32e+02  -1.0 3.67e+01    -  4.68e-02 2.39e-02f  1
   3 -1.5231402e+04 2.09e+00 1.29e+02  -1.0 2.49e+01    -  6.89e-03 1.95e-02f  1
   4 -1.5269528e+04 2.08e+00 6.39e+02  -1.0 6.43e+00    -  1.19e-01 2.15e-03f  1
   5 -1.6154358e+04 1.97e+00 5.79e+02  -1.0 7.00e+00    -  4.75e-02 5.50e-02f  1
   6 -2.1766616e+04 1.15e+00 6.23e+02  -1.0 4.29e+00    -  1.09e-01 4.13e-01f  1
   7 -2.2777707e+04 1.01e+00 5.15e+02  -1.0 2.19e+00    -  2.68e-01 1.27e-01f  1
   8 -2.5485122e+04 5.99e-01 3.68e+02  -1.0 1.81e+00    -  2.40e-01 4.06e-01f  1
   9 -2.5521316e+04 5.93e-01 4.39e+02  -1.0 1.50e+00    -  2.46e-02 9.38e-03f  1
iter    objective    inf_pr   inf_du lg(mu)  ||d||  lg(rg) alpha_du alpha_pr  ls
  10 -2.5639608e+04 5.72e-01 1.61e+03  -1.0 3.67e+00    -  3.06e-01 3.52e-02f  1
  11 -2.5689979e+04 5.61e-01 3.11e+02  -1.0 1.23e+00    -  6.05e-03 2.04e-02f  1
  12 -2.6317852e+04 3.91e-01 2.21e+02  -1.0 1.26e+00    -  7.20e-02 3.03e-01f  1
  13 -2.6677196e+04 2.87e-01 1.64e+02  -1.0 1.02e+00    -  1.21e-01 2.66e-01f  1
  14 -2.6690599e+04 2.83e-01 1.61e+02  -1.0 4.39e-01    -  1.16e-01 1.31e-02h  1
  15 -2.7389066e+04 4.44e-16 1.72e+02  -1.0 7.22e-01    -  3.29e-01 1.00e+00f  1
  16 -2.7395595e+04 8.88e-16 1.00e-06  -1.0 1.22e-02    -  1.00e+00 1.00e+00f  1
  17 -2.7409684e+04 4.44e-16 2.83e-08  -2.5 1.76e-02    -  1.00e+00 1.00e+00f  1
  18 -2.7409976e+04 4.44e-16 1.50e-09  -3.8 3.84e-04    -  1.00e+00 1.00e+00f  1
  19 -2.7410000e+04 4.44e-16 1.84e-11  -5.7 3.12e-05    -  1.00e+00 1.00e+00f  1
iter    objective    inf_pr   inf_du lg(mu)  ||d||  lg(rg) alpha_du alpha_pr  ls
  20 -2.7410000e+04 2.22e-16 2.51e-14  -8.6 3.93e-07    -  1.00e+00 1.00e+00f  1

Number of Iterations....: 20

                                   (scaled)                 (unscaled)
Objective...............:  -6.8525000440247788e+02   -2.7410000176099114e+04
Dual infeasibility......:   2.5059056392440215e-14    1.0023622556976086e-12
Constraint violation....:   2.2204460492503131e-16    2.2204460492503131e-16
Complementarity.........:   2.5072057234894792e-09    1.0028822893957917e-07
Overall NLP error.......:   2.5072057234894792e-09    1.0028822893957917e-07


Number of objective function evaluations             = 21
Number of objective gradient evaluations             = 21
Number of equality constraint evaluations            = 21
Number of inequality constraint evaluations          = 21
Number of equality constraint Jacobian evaluations   = 1
Number of inequality constraint Jacobian evaluations = 1
Number of Lagrangian Hessian evaluations             = 1
Total CPU secs in IPOPT (w/o function evaluations)   =      0.236
Total CPU secs in NLP function evaluations           =      0.210

EXIT: Optimal Solution Found.
Time to Solution........:1.1193430423736572
